NAME : MM33_depots
COMMENT : Instance 33 in MD algorithm. Coordinates of depots and vhcl speeds given.
TYPE : TSP
DIMENSION : 15
EDGE_WEIGHT_TYPE : ATT
NODE_COORD_SECTION
201 57.8128 41.3045 1
202 39.0451 52.6906 1
203 21.3840 32.3032 1
204 74.5087 57.5082 1
205 61.5690 45.4534 1
206 41.4884 48.3091 1
207 51.8898 26.1816 1
208 46.1699 37.2598 1
209 25.6378 56.8356 1
210 1.9611 36.8345 1
211 49.2089 52.6940 1
212 42.2922 82.9651 1
213 40.3892 63.2544 1
214 35.9005 67.2894 1
215 19.7127 89.3388 1
EOF
